# Solution for model VRP
# Objective value = 1.6167871603954197e+03
x0_0 0
x0_1 0
x0_2 0
x0_3 0
x0_4 0
x0_5 0
x0_6 0
x0_7 0
x0_8 1
x0_9 0
x1_0 0
x1_1 0
x1_2 0
x1_3 0
x1_4 0
x1_5 0
x1_6 0
x1_7 0
x1_8 0
x1_9 0
x2_0 0
x2_1 0
x2_2 0
x2_3 0
x2_4 0
x2_5 0
x2_6 0
x2_7 0
x2_8 0
x2_9 0
x3_0 0
x3_1 0
x3_2 0
x3_3 0
x3_4 0
x3_5 1
x3_6 0
x3_7 0
x3_8 0
x3_9 0
x4_0 0
x4_1 0
x4_2 0
x4_3 0
x4_4 0
x4_5 0
x4_6 0
x4_7 0
x4_8 0
x4_9 0
x5_0 0
x5_1 0
x5_2 0
x5_3 0
x5_4 0
x5_5 0
x5_6 1
x5_7 0
x5_8 0
x5_9 0
x6_0 0
x6_1 0
x6_2 0
x6_3 0
x6_4 0
x6_5 0
x6_6 0
x6_7 0
x6_8 0
x6_9 0
x7_0 0
x7_1 0
x7_2 0
x7_3 0
x7_4 0
x7_5 0
x7_6 0
x7_7 0
x7_8 0
x7_9 1
x8_0 0
x8_1 0
x8_2 0
x8_3 0
x8_4 0
x8_5 0
x8_6 0
x8_7 1
x8_8 0
x8_9 0
x9_0 0
x9_1 0
x9_2 0
x9_3 0
x9_4 0
x9_5 0
x9_6 0
x9_7 0
x9_8 0
x9_9 0
y_0 1
y_1 0
y_2 0
y_3 1
y_4 0
f0_0 1
f0_1 0
f0_2 0
f0_3 0
f0_4 0
f0_5 0
f0_6 0
f0_7 1
f0_8 1
f0_9 1
f1_0 0
f1_1 1
f1_2 0
f1_3 0
f1_4 0
f1_5 0
f1_6 0
f1_7 0
f1_8 0
f1_9 0
f2_0 0
f2_1 0
f2_2 1
f2_3 0
f2_4 0
f2_5 0
f2_6 0
f2_7 0
f2_8 0
f2_9 0
f3_0 0
f3_1 0
f3_2 0
f3_3 1
f3_4 0
f3_5 1
f3_6 1
f3_7 0
f3_8 0
f3_9 0
f4_0 0
f4_1 0
f4_2 0
f4_3 0
f4_4 1
f4_5 0
f4_6 0
f4_7 0
f4_8 0
f4_9 0
z_5 0
z_6 1
z_7 0
z_8 0
z_9 1
a5_0 0
a6_0 0
a7_0 0
a8_0 0
a9_0 1
a5_1 0
a6_1 0
a7_1 0
a8_1 0
a9_1 0
a5_2 0
a6_2 0
a7_2 0
a8_2 0
a9_2 0
a5_3 0
a6_3 1
a7_3 0
a8_3 0
a9_3 0
a5_4 0
a6_4 0
a7_4 0
a8_4 0
a9_4 0
t0_0 0
t0_1 0
t0_2 0
t0_3 0
t0_4 0
t0_5 0
t0_6 0
t0_7 0
t0_8 75
t0_9 0
t1_0 0
t1_1 0
t1_2 0
t1_3 0
t1_4 0
t1_5 0
t1_6 0
t1_7 0
t1_8 0
t1_9 0
t2_0 0
t2_1 0
t2_2 0
t2_3 0
t2_4 0
t2_5 0
t2_6 0
t2_7 0
t2_8 0
t2_9 0
t3_0 0
t3_1 0
t3_2 0
t3_3 0
t3_4 0
t3_5 50
t3_6 0
t3_7 0
t3_8 0
t3_9 0
t4_0 0
t4_1 0
t4_2 0
t4_3 0
t4_4 0
t4_5 0
t4_6 0
t4_7 0
t4_8 0
t4_9 0
t5_0 0
t5_1 0
t5_2 0
t5_3 0
t5_4 0
t5_5 0
t5_6 25
t5_7 0
t5_8 0
t5_9 0
t6_0 0
t6_1 0
t6_2 0
t6_3 0
t6_4 0
t6_5 0
t6_6 0
t6_7 0
t6_8 0
t6_9 0
t7_0 0
t7_1 0
t7_2 0
t7_3 0
t7_4 0
t7_5 0
t7_6 0
t7_7 0
t7_8 0
t7_9 25
t8_0 0
t8_1 0
t8_2 0
t8_3 0
t8_4 0
t8_5 0
t8_6 0
t8_7 50
t8_8 0
t8_9 0
t9_0 0
t9_1 0
t9_2 0
t9_3 0
t9_4 0
t9_5 0
t9_6 0
t9_7 0
t9_8 0
t9_9 0
